objective value:                 0.000860118686999798
x_1_2                                               1 	(obj:0)
x_2_3                                               1 	(obj:0)
x_3_2                               0.999999999999999 	(obj:0)
x_4_1                                               1 	(obj:0)
x_5_1                                               1 	(obj:0)
x_6_3                                               1 	(obj:0)
x_7_3                                               1 	(obj:0)
x_8_2                                               1 	(obj:0)
x_9_1                                               1 	(obj:0)
x_10_1                                              1 	(obj:0)
x_11_2                                              1 	(obj:0)
x_12_2                                              1 	(obj:0)
x_13_3                                              1 	(obj:0)
x_14_3                                              1 	(obj:0)
x_15_1                                              1 	(obj:0)
x_16_2                                              1 	(obj:0)
x_17_3                                              1 	(obj:0)
x_18_3                               1.00000000000001 	(obj:0)
x_19_2                                              1 	(obj:0)
x_20_2                                              1 	(obj:0)
ind_1                                               1 	(obj:0)
abs_1_3                                             1 	(obj:0)
ind_2                                               1 	(obj:0)
abs_2_1                                             1 	(obj:0)
ind_3                                               1 	(obj:0)
abs_3_2                                             1 	(obj:0)
epsI                             0.000860118686999798 	(obj:1)
prodt_x_19_2_t_x_20_2_coh_2                         1 	(obj:0)
prodt_x_1_2_t_x_2_1_more_coh_1           1.6927905603 	(obj:0)
prodt_x_4_1_t_x_5_1_more_coh_1           2.9400031432 	(obj:0)
prodt_x_5_1_t_x_6_1_more_coh_1           2.6385649738 	(obj:0)
prodt_x_9_1_t_x_14_1_more_coh_1          2.2532721095 	(obj:0)
prodt_x_10_1_t_x_11_1_more_coh_1          1.796327709 	(obj:0)
prodt_x_1_2_t_x_2_2_more_coh_2       3.88086675910001 	(obj:0)
prodt_x_3_2_t_x_4_2_more_coh_2            3.179328724 	(obj:0)
prodt_x_8_2_t_x_11_2_more_coh_2          3.4299710353 	(obj:0)
prodt_x_11_2_t_x_12_2_more_coh_2         2.4217288731 	(obj:0)
prodt_x_12_2_t_x_13_2_more_coh_2         2.5208233207 	(obj:0)
prodt_x_16_2_t_x_17_2_more_coh_2         1.0747648303 	(obj:0)
prodt_x_2_3_t_x_3_3_more_coh_3       6.14211266130001 	(obj:0)
prodt_x_6_3_t_x_7_3_more_coh_3       4.68999864020001 	(obj:0)
prodt_x_7_3_t_x_9_3_more_coh_3       3.78381955640001 	(obj:0)
prodt_x_13_3_t_x_15_3_more_coh_3     3.58821195300001 	(obj:0)
prodt_x_14_3_t_x_15_3_more_coh_3    0.765478847700004 	(obj:0)
prodt_x_17_3_t_x_18_3_more_coh_3     1.18668205550001 	(obj:0)
prodt_x_1_2_t_x_2_2_more_irrev1_2_1    -1.26744969737515 	(obj:0)
prodt_x_3_2_t_x_4_1_more_irrev1_2_1   -0.342138237475625 	(obj:0)
prodt_x_4_1_t_x_5_2_more_irrev1_2_1    -1.13785834999972 	(obj:0)
prodt_x_5_1_t_x_10_2_more_irrev1_2_1    -2.89284145454525 	(obj:0)
prodt_x_8_2_t_x_9_1_more_irrev1_2_1    -1.74434419744546 	(obj:0)
prodt_x_9_1_t_x_11_2_more_irrev1_2_1    -2.80203643110717 	(obj:0)
prodt_x_10_1_t_x_12_2_more_irrev1_2_1   -0.749426915387204 	(obj:0)
prodt_x_11_2_t_x_13_1_more_irrev1_2_1   -0.187690805065727 	(obj:0)
prodt_x_12_2_t_x_13_1_more_irrev1_2_1   -0.754250069999996 	(obj:0)
prodt_x_15_1_t_x_20_2_more_irrev1_2_1    -1.67313210178608 	(obj:0)
prodt_x_1_2_t_x_2_2_more_irrev2_2_1     1.26744969737515 	(obj:0)
prodt_x_3_2_t_x_4_1_more_irrev2_2_1    0.342138237475617 	(obj:0)
prodt_x_4_1_t_x_5_2_more_irrev2_2_1           1.13785835 	(obj:0)
prodt_x_5_1_t_x_10_2_more_irrev2_2_1     2.89284145454547 	(obj:0)
prodt_x_8_2_t_x_9_1_more_irrev2_2_1     1.74434419744546 	(obj:0)
prodt_x_9_1_t_x_11_2_more_irrev2_2_1     2.80203643110717 	(obj:0)
prodt_x_10_1_t_x_12_2_more_irrev2_2_1    0.749426915387204 	(obj:0)
prodt_x_11_2_t_x_13_1_more_irrev2_2_1    0.187690805065727 	(obj:0)
prodt_x_12_2_t_x_13_1_more_irrev2_2_1    0.754250069999996 	(obj:0)
prodt_x_15_1_t_x_20_2_more_irrev2_2_1     1.67313210178608 	(obj:0)
prodt_x_1_2_t_x_2_3_more_irrev1_3_1     1.27018608850003 	(obj:0)
prodt_x_2_3_t_x_3_1_more_irrev1_3_1     2.42288203352799 	(obj:0)
prodt_x_4_1_t_x_5_3_more_irrev1_3_1           2.23138343 	(obj:0)
prodt_x_5_1_t_x_10_3_more_irrev1_3_1    0.677194362774704 	(obj:0)
prodt_x_6_3_t_x_7_1_more_irrev1_3_1     1.06210448801917 	(obj:0)
prodt_x_7_3_t_x_10_1_more_irrev1_3_1     1.57721641000001 	(obj:0)
prodt_x_9_1_t_x_11_3_more_irrev1_3_1    0.776335259088815 	(obj:0)
prodt_x_10_1_t_x_12_3_more_irrev1_3_1     2.38261568148831 	(obj:0)
prodt_x_13_3_t_x_17_1_more_irrev1_3_1                    1 	(obj:0)
prodt_x_14_3_t_x_15_1_more_irrev1_3_1   0.0381639464888781 	(obj:0)
prodt_x_15_1_t_x_20_3_more_irrev1_3_1     1.42889895863442 	(obj:0)
prodt_x_1_2_t_x_2_3_more_irrev2_3_1    -1.27018608850003 	(obj:0)
prodt_x_2_3_t_x_3_1_more_irrev2_3_1    -2.42288203352799 	(obj:0)
prodt_x_4_1_t_x_5_3_more_irrev2_3_1          -2.23138343 	(obj:0)
prodt_x_5_1_t_x_10_3_more_irrev2_3_1   -0.677194362774704 	(obj:0)
prodt_x_6_3_t_x_7_1_more_irrev2_3_1    -1.06210448801917 	(obj:0)
prodt_x_7_3_t_x_10_1_more_irrev2_3_1    -1.57721641000001 	(obj:0)
prodt_x_9_1_t_x_11_3_more_irrev2_3_1   -0.776335259088801 	(obj:0)
prodt_x_10_1_t_x_12_3_more_irrev2_3_1    -2.38261568148831 	(obj:0)
prodt_x_13_3_t_x_17_1_more_irrev2_3_1                   -1 	(obj:0)
prodt_x_14_3_t_x_15_1_more_irrev2_3_1  -0.0381639464888781 	(obj:0)
prodt_x_15_1_t_x_20_3_more_irrev2_3_1    -1.42889895863442 	(obj:0)
prodt_x_1_2_t_x_2_3_more_irrev1_3_2    -1.27018608850003 	(obj:0)
prodt_x_2_3_t_x_3_2_more_irrev1_3_2   -0.649015998014774 	(obj:0)
prodt_x_3_2_t_x_4_3_more_irrev1_3_2    -3.53344223430713 	(obj:0)
prodt_x_6_3_t_x_7_2_more_irrev1_3_2     -3.7408280979025 	(obj:0)
prodt_x_7_3_t_x_10_2_more_irrev1_3_2           -0.3572801 	(obj:0)
prodt_x_8_2_t_x_9_3_more_irrev1_3_2    -1.33404806348762 	(obj:0)
prodt_x_11_2_t_x_13_3_more_irrev1_3_2    -2.83979647236053 	(obj:0)
prodt_x_12_2_t_x_14_3_more_irrev1_3_2          -0.31225769 	(obj:0)
prodt_x_13_3_t_x_17_2_more_irrev1_3_2   -0.859913322001031 	(obj:0)
prodt_x_14_3_t_x_15_2_more_irrev1_3_2    -2.19320616793674 	(obj:0)
prodt_x_16_2_t_x_20_3_more_irrev1_3_2   -0.583159030850494 	(obj:0)
prodt_x_17_3_t_x_18_2_more_irrev1_3_2   -0.140406138442598 	(obj:0)
prodt_x_18_3_t_x_19_2_more_irrev1_3_2     1.74727081765261 	(obj:0)
prodt_x_1_2_t_x_2_3_more_irrev2_3_2     1.27018608850003 	(obj:0)
prodt_x_2_3_t_x_3_2_more_irrev2_3_2    0.649015998015137 	(obj:0)
prodt_x_3_2_t_x_4_3_more_irrev2_3_2     3.53344223430713 	(obj:0)
prodt_x_6_3_t_x_7_2_more_irrev2_3_2      3.7408280979025 	(obj:0)
prodt_x_7_3_t_x_10_2_more_irrev2_3_2    0.357280100000001 	(obj:0)
prodt_x_8_2_t_x_9_3_more_irrev2_3_2     1.33404806348762 	(obj:0)
prodt_x_11_2_t_x_13_3_more_irrev2_3_2     2.83979647236053 	(obj:0)
prodt_x_12_2_t_x_14_3_more_irrev2_3_2           0.31225769 	(obj:0)
prodt_x_13_3_t_x_17_2_more_irrev2_3_2    0.859913322001035 	(obj:0)
prodt_x_14_3_t_x_15_2_more_irrev2_3_2     2.19320616793674 	(obj:0)
prodt_x_16_2_t_x_20_3_more_irrev2_3_2    0.583159030850494 	(obj:0)
prodt_x_17_3_t_x_18_2_more_irrev2_3_2    0.140406138442598 	(obj:0)
prodt_x_18_3_t_x_19_2_more_irrev2_3_2     1.74727081765261 	(obj:0)
SCIP Status        : solving was interrupted [time limit reached]
Total Time         :    3600.00
  solving          :    3600.00
  presolving       :       0.04 (included in solving)
  reading          :       0.00
  copying          :       1.40 (152 #copies) (minimal 0.00, maximal 0.02, average 0.01)
Original Problem   :
  Problem name     : ../instances/Pot4/Pot4_T_20B_alpha=10.txt.spa
  Variables        : 101 (100 binary, 0 integer, 0 implicit integer, 1 continuous)
  Constraints      : 193 initial, 193 maximal
  Objective sense  : maximize
Presolved Problem  :
  Problem name     : t_../instances/Pot4/Pot4_T_20B_alpha=10.txt.spa
  Variables        : 590 (92 binary, 0 integer, 16 implicit integer, 482 continuous)
  Constraints      : 2015 initial, 6113 maximal
Presolvers         :   ExecTime  SetupTime  Calls  FixedVars   AggrVars   ChgTypes  ChgBounds   AddHoles    DelCons    AddCons   ChgSides   ChgCoefs
  boundshift       :       0.00       0.00      0          0          0          0          0          0          0          0          0          0
  components       :       0.00       0.00      1          0          0          0          0          0          0          0          0          0
  convertinttobin  :       0.00       0.00      0          0          0          0          0          0          0          0          0          0
  domcol           :       0.00       0.00      1          0          0          0          0          0          0          0          0          0
  dualagg          :       0.00       0.00      0          0          0          0          0          0          0          0          0          0
  dualinfer        :       0.00       0.00      0          0          0          0          0          0          0          0          0          0
  gateextraction   :       0.00       0.00      3          0          0          0          0          0        108         34          0          0
  implfree         :       0.00       0.00      0          0          0          0          0          0          0          0          0          0
  implics          :       0.00       0.00      4          0          0          0          0          0          0          0          0          0
  inttobinary      :       0.00       0.00      0          0          0          0          0          0          0          0          0          0
  redvub           :       0.00       0.00      0          0          0          0          0          0          0          0          0          0
  stuffing         :       0.00       0.00      1          0          0          0          0          0          0          0          0          0
  trivial          :       0.00       0.00      7          0          0          0          0          0          0          0          0          0
  tworowbnd        :       0.00       0.00      0          0          0          0          0          0          0          0          0          0
  dualfix          :       0.00       0.00      7          4          0          0          0          0          0          0          0          0
  genvbounds       :       0.00       0.00      0          0          0          0          0          0          0          0          0          0
  probing          :       0.02       0.00      1          0          0          0          4          0          0          0          0          0
  pseudoobj        :       0.00       0.00      0          0          0          0          0          0          0          0          0          0
  varbound         :       0.00       0.00      9          0          0          0          0          0         28         28          0          0
  setppc           :       0.00       0.00     12          0          0          0          0          0          0          0          0          0
  and              :       0.00       0.00      4          0         12          0          0          0         12          0          0          0
  linear           :       0.00       0.00      9          3          1          0          4          0          7          0         12         12
  logicor          :       0.01       0.00      7          0          0          0          0          0          0          0          0          0
  bounddisjunction :       0.00       0.00      0          0          0          0          0          0          0          0          0          0
  quadratic        :       0.01       0.00      2          0          0          0          0          0          0       1915          0          0
  root node        :          -          -      -          1          -          -         81          -          -          -          -          -
Constraints        :     Number  MaxNumber  #Separate #Propagate    #EnfoLP    #EnfoPS     #Check   #ResProp    Cutoffs    DomReds       Cuts    Applied      Conss   Children
  integral         :          0          0          0          0    2219100          0     435419          0          0      61312          0          0        330    4408364
  varbound         :        869        869         82   13104650      10355          0      86850    7152381     156456   90531734          0          0          0          0
  setppc           :        110+       170         82   12947441      10354          0       1826    4016895      43571    6001261         11          0          0          0
  and              :         22         22      69964     378985       1161          0       1352     532468          5      32526       2038       2025          0          0
  linear           :        979        979         82   12904620       9801          0       1285    4294039     497240  156740934     402549     402335          0          0
  logicor          :         35+      1103         81    3801260          0          0          0      85247      10726     208773          1          1          0          0
  bounddisjunction :          0+      3005          0    6731303          0          0          0     570760      21516    7782944          0          0          0          0
  countsols        :          0          0          0          0          7          0     348267          0          0          0          0          0          0          0
Constraint Timings :  TotalTime  SetupTime   Separate  Propagate     EnfoLP     EnfoPS      Check    ResProp    SB-Prop
  integral         :      20.53       0.00       0.00       0.00      20.51       0.00       0.02       0.00       0.00
  varbound         :      77.06       0.00       0.01      75.53       0.01       0.00       0.36       0.99       0.16
  setppc           :      51.77       0.00       0.00      50.65       0.00       0.00       0.01       0.94       0.17
  and              :       0.26       0.00       0.02       0.09       0.00       0.00       0.00       0.14       0.01
  linear           :     224.72       0.00       0.00     220.89       0.30       0.00       0.03       3.10       0.40
  logicor          :      21.78       0.00       0.00      21.66       0.00       0.00       0.00       0.09       0.03
  bounddisjunction :      94.98       0.00       0.00      94.80       0.00       0.00       0.00       0.13       0.05
  countsols        :       0.01       0.00       0.00       0.00       0.00       0.00       0.01       0.00       0.00
Propagators        : #Propagate   #ResProp    Cutoffs    DomReds
  dualfix          :          2          0          0          0
  genvbounds       :          0          0          0          0
  obbt             :          0          0          0          0
  probing          :          0          0          0          0
  pseudoobj        :   14002080          0      10711         79
  redcost          :    4808493          0       5897     554107
  rootredcost      :          8          0          0          1
  vbounds          :   15322645      23604         11      17220
Propagator Timings :  TotalTime  SetupTime   Presolve  Propagate    ResProp    SB-Prop
  dualfix          :       0.00       0.00       0.00       0.00       0.00       0.00
  genvbounds       :       2.27       0.00       0.00       2.27       0.00       0.00
  obbt             :       0.00       0.00       0.00       0.00       0.00       0.00
  probing          :       0.02       0.00       0.02       0.00       0.00       0.00
  pseudoobj        :       4.57       0.00       0.00       4.56       0.00       0.01
  redcost          :      22.77       0.00       0.00      22.77       0.00       0.00
  rootredcost      :       2.07       0.00       0.00       2.07       0.00       0.00
  vbounds          :       6.08       0.00       0.00       6.06       0.01       0.01
Conflict Analysis  :       Time      Calls    Success    DomReds  Conflicts   Literals    Reconvs ReconvLits   LP Iters
  propagation      :      14.68     244210     242536          -    3003902       39.1      21635       46.1          -
  infeasible LP    :       6.85      62888      39727          -     624206       39.9        102       16.6          0
  bound exceed. LP :       0.00          0          0          -          0        0.0          0        0.0          0
  strong branching :       0.00          0          0          -          0        0.0          0        0.0          0
  pseudo solution  :       0.00          0          0          -          0        0.0          0        0.0          -
  applied globally :       5.32          -          -          0     473086       20.1          -          -          -
  applied locally  :          -          -          -          0       8443       33.3          -          -          -
Separators         :   ExecTime  SetupTime      Calls    Cutoffs    DomReds       Cuts    Applied      Conss
  cut pool         :       0.00                    81          -          -       1213          -          -    (maximal pool size: 765)
  cgmip            :       0.00       0.00          0          0          0          0          0          0
  clique           :       0.01       0.00         82          0          0         47         35          0
  closecuts        :       0.00       0.00          0          0          0          0          0          0
  cmir             :       0.00       0.00         10          0          0        192        160          0
  disjunctive      :       0.00       0.00          0          0          0          0          0          0
  eccuts           :       0.00       0.00          0          0          0          0          0          0
  flowcover        :       0.15       0.00         15          0          0        288         19          0
  gomory           :       0.03       0.00         10          0          0          7          7          0
  impliedbounds    :       0.00       0.00         82          0          0        682        144          0
  intobj           :       0.00       0.00          0          0          0          0          0          0
  mcf              :       0.00       0.00          1          0          0          0          0          0
  oddcycle         :       0.00       0.00          0          0          0          0          0          0
  rapidlearning    :       0.00       0.00          0          0          0          0          0          0
  strongcg         :       0.03       0.00         20          0          0         15          6          0
  zerohalf         :       0.00       0.00          0          0          0          0          0          0
Pricers            :   ExecTime  SetupTime      Calls       Vars
  problem variables:       0.00          -          0          0
Branching Rules    :   ExecTime  SetupTime   BranchLP  BranchExt   BranchPS    Cutoffs    DomReds       Cuts      Conss   Children
  allfullstrong    :       0.00       0.00          0          0          0          0          0          0          0          0
  cloud            :       0.00       0.00          0          0          0          0          0          0          0          0
  distribution     :       0.00       0.00          0          0          0          0          0          0          0          0
  fullstrong       :       0.00       0.00          0          0          0          0          0          0          0          0
  inference        :       0.00       0.00          0          0          0          0          0          0          0          0
  leastinf         :       0.00       0.00          0          0          0          0          0          0          0          0
  mostinf          :       0.00       0.00          0          0          0          0          0          0          0          0
  multaggr         :       0.00       0.00          0          0          0          0          0          0          0          0
  nodereopt        :       0.00       0.00          0          0          0          0          0          0          0          0
  pscost           :       0.00       0.00          0          0          0          0          0          0          0          0
  random           :       0.00       0.00          0          0          0          0          0          0          0          0
  relpscost        :      19.61       0.00    2208744          0          0          0      61312          0       -535    4408364
Primal Heuristics  :   ExecTime  SetupTime      Calls      Found       Best
  LP solutions     :       0.00          -          -          7          -
  pseudo solutions :       0.00          -          -          0          -
  strong branching :       0.00          -          -          0          -
  SpaGreedy        :     405.33       0.00     348266          2          1
  actconsdiving    :       0.00       0.00          0          0          0
  bound            :       0.00       0.00          0          0          0
  clique           :       0.00       0.00          0          0          0
  coefdiving       :      26.99       0.00      11400          0          0
  crossover        :       1.05       0.00          1          0          0
  dins             :       0.00       0.00          0          0          0
  distributiondivin:      44.16       0.00      11400          0          0
  dualval          :       0.00       0.00          0          0          0
  feaspump         :      17.17       0.00       2165          0          0
  fixandinfer      :       0.00       0.00          0          0          0
  fracdiving       :      28.09       0.00      11401          0          0
  guideddiving     :      29.46       0.00      11400          0          0
  indicator        :       0.29       0.00          0          0          0
  intdiving        :       0.00       0.00          0          0          0
  intshifting      :       0.45       0.00        127          0          0
  linesearchdiving :      27.23       0.00      11400          0          0
  localbranching   :       0.00       0.00          0          0          0
  mutation         :       0.00       0.00          0          0          0
  nlpdiving        :       0.04       0.00          0          0          0
  objpscostdiving  :      18.03       0.00       2978          0          0
  octane           :       0.00       0.00          0          0          0
  ofins            :       0.00       0.00          0          0          0
  oneopt           :       0.57       0.00          7          0          0
  proximity        :       0.00       0.00          0          0          0
  pscostdiving     :      26.21       0.00      11400          0          0
  randrounding     :       1.01       0.00      85652          0          0
  rens             :       0.29       0.00          1          0          0
  reoptsols        :       0.00       0.00          0          0          0
  rins             :       3.77       0.00        105          0          0
  rootsoldiving    :      18.76       0.00       3629          0          0
  rounding         :       1.00       0.00      20881          0          0
  shiftandpropagate:       0.00       0.00          0          0          0
  shifting         :       1.61       0.00       5670          0          0
  simplerounding   :       0.40       0.00          0          0          0
  subnlp           :       0.54       0.00          0          0          0
  trivial          :       0.00       0.00          2          0          0
  trivialnegation  :       0.00       0.00          0          0          0
  trysol           :       0.77       0.00          0          0          0
  twoopt           :       0.00       0.00          0          0          0
  undercover       :       0.00       0.00          1          0          0
  vbounds          :       0.00       0.00          0          0          0
  veclendiving     :      28.24       0.00      11401          0          0
  zeroobj          :       0.00       0.00          0          0          0
  zirounding       :       0.74       0.00       1000          0          0
  other solutions  :          -          -          -          0          -
Diving Statistics  :      Calls      Nodes   LP Iters Backtracks   MinDepth   MaxDepth   AvgDepth  NLeafSols  MinSolDpt  MaxSolDpt  AvgSolDpt
  actconsdiving    :          0          -          -          -          -          -          -          -          -          -          -
  coefdiving       :      11400      67195     493111      16595         17         42       28.7          -          -          -          -
  distributiondivin:      11400      62937     567554      15447         16         38       28.6          -          -          -          -
  fracdiving       :      11401      69991     607895      18082         15         45       28.8          -          -          -          -
  guideddiving     :      11400      71607     647429      17921         19         50       29.1          -          -          -          -
  linesearchdiving :      11400      64249     588973      18279         17         39       28.3          -          -          -          -
  pscostdiving     :      11400      74206     541702      15119         17         48       29.4          -          -          -          -
  veclendiving     :      11401      66877     487893      20558         17         38       28.3          -          -          -          -
LP                 :       Time      Calls Iterations  Iter/call   Iter/sec  Time-0-It Calls-0-It
  primal LP        :       0.00         12          0       0.00          -       0.00         12
  dual LP          :    1471.01    3906117   60038302      18.48   40814.34      60.70     656747
  lex dual LP      :       0.00          0          0       0.00          -
  barrier LP       :       0.00          0          0       0.00          -       0.00          0
  diving/probing LP:     145.63     240752    5826516      24.20   40009.04
  strong branching :       6.92       6687     257208      38.46   37168.79
    (at root node) :          -         19       1197      63.00          -
  conflict analysis:       0.00          0          0       0.00          -
B&B Tree           :
  number of runs   :          1
  nodes            :    4054586 (2204182 internal, 1850404 leaves)
  nodes (total)    :    4054586 (2204182 internal, 1850404 leaves)
  nodes left       :     326224
  max depth        :         40
  max depth (total):         40
  backtracks       :     922027 (22.7%)
  delayed cutoffs  :      26723
  repropagations   :     236318 (6118270 domain reductions, 25126 cutoffs)
  avg switch length:       5.86
  switching time   :     526.85
Root Node          :
  First LP value   : +3.00000000000000e+00
  First LP Iters   :        368
  First LP Time    :       0.00
  Final Dual Bound : +7.06105231626765e-03
  Final Root Iters :       3263
Solution           :
  Solutions found  :          9 (8 improvements)
  First Solution   : +7.79897717000003e-04   (in run 1, after 1 nodes, 0.05 seconds, depth 0, found by <SpaGreedy>)
  Gap First Sol.   :   infinite
  Gap Last Sol.    :      57.83 %
  Primal Bound     : +8.60118686999798e-04   (in run 1, after 1066257 nodes, 927.74 seconds, depth 36, found by <relaxation>)
  Dual Bound       : +1.26371998458811e-03
  Gap              :      46.92 %
  Avg. Gap         :      38.75 % (139497.10 primal-dual integral)
